Test: hole015_shuffled.cnf
Options: -no-inverting-opt -sym-var-bump
WARNING: for repeatability, setting FPU to use double precision
============================[ Problem Statistics ]=============================
|                                                                             |
|  Number of symmetries:           29                                         |
|  Number of invertingSyms:         0                                         |
|  Number of variables:           240                                         |
|  Number of clauses:            1816                                         |
|  Parse time:                   0.00 s                                       |
|                                                                             |
============================[ Search Statistics ]==============================
| Conflicts |          ORIGINAL         |          LEARNT          | Progress |
|           |    Vars  Clauses Literals |    Limit  Clauses Lit/Cl |          |
===============================================================================
|       100 |     240     1816     3840 |      665      185     49 |  0.002 % |
|       250 |     240     1816     3840 |      732      460     54 |  0.002 % |
|       475 |     240     1816     3840 |      805      808     58 |  0.002 % |
|       812 |     240     1816     3840 |      886      572     58 |  0.002 % |
|      1318 |     240     1816     3840 |      974      677     52 |  0.002 % |
|      2077 |     240     1816     3840 |     1072     1039     68 |  0.002 % |
|      3216 |     240     1816     3840 |     1179      865     68 |  0.002 % |
|      4924 |     240     1816     3840 |     1297      956     77 |  0.002 % |
|      7486 |     240     1816     3840 |     1427     1305     74 |  0.002 % |
|     11330 |     240     1816     3840 |     1570      842     77 |  0.002 % |
|     17096 |     240     1816     3840 |     1727     1293     77 |  0.002 % |
|     25745 |     240     1816     3840 |     1899     1373     79 |  0.002 % |
|     38719 |     240     1816     3840 |     2089     1505     92 |  0.002 % |
|     58180 |     240     1816     3840 |     2298     1551     93 |  0.002 % |
|     87372 |     240     1816     3840 |     2528     1616     94 |  0.002 % |
|    131161 |     240     1816     3840 |     2781     1975     88 |  0.002 % |
|    196845 |     240     1816     3840 |     3059     2020     84 |  0.002 % |
|    295371 |     240     1816     3840 |     3365     2312     93 |  0.002 % |
|    443160 |     240     1816     3840 |     3702     2741     86 |  0.002 % |
|    664843 |     240     1816     3840 |     4072     2701     89 |  0.002 % |
|    997368 |     240     1816     3840 |     4479     3874     71 |  0.002 % |
|   1496156 |     240     1816     3840 |     4927     3215     92 |  0.002 % |
|   2244338 |     240     1816     3840 |     5420     3778     85 |  0.002 % |
===============================================================================
restarts              : 4095
conflicts             : 2396214        (19762 /sec)
symconflicts          : 241608         (1993 /sec)
decisions             : 3716824        (0.00 % random) (30654 /sec)
propagations          : 48840974       (402807 /sec)
sympropagations       : 1430453        (11797 /sec)
conflict literals     : 215239239      (6.51 % deleted)
literals     : 215239239      (6.51 % deleted)

HEURISTIC USAGES
random                : 0           
activity w/ lookahead : 0           
activity no lookahead : 0           
original sp           : 3716824     
sym count             : 0           

Memory used           : 16.00 MB
CPU time              : 121.252 s

UNSATISFIABLE
